16 965
520 7 441 7 296 7 152 12
520 7 441 7 296 7 152 12
520 7 441 7 296 7 152 12
525 7 445 7 264 7 63 9 889 11 721 18
525 7 445 7 264 7 63 9 889 11 721 18
535 8 492 8 398 9 277 10 183 14 57 26 896 50
535 8 492 8 398 9 277 10 183 14 57 26 896 50
535 8 495 8 401 9 236 10 73 14 906 18 773 30
520 7 440 7 284 7 88 12
530 7 487 7 372 7 89 12
520 7 440 7 284 7 103 9 923 13
520 7 441 7 347 7 188 9 17 11 840 15 711 23
525 7 502 7 412 7 255 9 80 11 874 18
525 7 502 7 412 7 255 9 80 11 874 18
525 7 502 7 412 7 255 9 80 11 874 18
525 7 502 7 412 7 255 9 80 11 874 18
